75751570952177432175011,8,1,2,06,2,1,2,012,15,1,2,09,10,1,2,06,7,1,2,05,9,1,2,013,15,1,2,08,12,1,2,02,6,1,2,08,2,1,2,03,15,1,2,05,15,1,2,014,2,1,2,09,12,1,2,012,2,1,2,09,8,1,2,09,9,1,2,05,3,1,2,07,8,1,2,02,2,1,2,012,14,1,2,012,7,1,2,05,10,1,2,011,10,1,2,07,3,1,2,03,1,1,2,011,12,1,2,01,14,1,2,01,9,1,2,04,2,1,2,02,6,1,2,04,15,1,2,013,10,1,2,01,7,1,2,03,13,1,2,015,12,1,2,013,5,1,2,013,9,1,2,012,1,1,2,014,9,1,2,010,2,1,2,08,6,1,2,07,11,1,2,010,9,1,2,011,3,1,2,03,9,1,2,010,7,1,2,04,10,1,2,05,1,1,2,013,10,1,2,0